results_rootrelaxation/bin018_050_030.srr.sol
solution status: optimal solution found
objective value:                                    0
_var338_                            0.242941576105781 	(obj:0)
_var1885_                           0.252287565359982 	(obj:0)
_var2043_                          0.0655938342734784 	(obj:0)
_var2726_                            0.11985826381719 	(obj:0)
_var2729_                          0.0917161074196566 	(obj:0)
_var2733_                           0.265014587373973 	(obj:0)
_var2745_                           0.169187839828514 	(obj:0)
_var2748_                           0.148334904286378 	(obj:0)
_var2751_                           0.189606611645737 	(obj:0)
_var2753_                            0.19941904613147 	(obj:0)
_var2765_                           0.453706574249308 	(obj:0)
_var2767_                           0.261008298825832 	(obj:0)
_var2771_                           0.206729010211542 	(obj:0)
_var2777_                         0.00402108494632191 	(obj:0)
_var2780_                           0.105804020680419 	(obj:0)
_var2782_                          0.0903650753665694 	(obj:0)
_var2786_                          0.0905589335540329 	(obj:0)
_var2788_                              0.230518327028 	(obj:0)
_var2789_                           0.386429632834024 	(obj:0)
_var2793_                           0.303583816116904 	(obj:0)
_var2797_                          0.0543823642464544 	(obj:0)
_var2802_                           0.204120409906144 	(obj:0)
_var2806_                           0.371237320947469 	(obj:0)
_var2815_                           0.181988658623725 	(obj:0)
_var2821_                           0.273537204886757 	(obj:0)
_var2824_                           0.252199847331501 	(obj:0)
_var2829_                          0.0604086496729396 	(obj:0)
_var2832_                          0.0151427297264523 	(obj:0)
_var2834_                            0.03440084095608 	(obj:0)
_var2835_                         0.00934446631062751 	(obj:0)
_var2836_                          0.0480279819799901 	(obj:0)
_var2838_                           0.218325379478965 	(obj:0)
_var2839_                           0.174903008762835 	(obj:0)
_var2840_                         0.00242193704976287 	(obj:0)
_var2842_                           0.342515102791335 	(obj:0)
_var2843_                            0.26419054760106 	(obj:0)
_var2845_                          0.0254213158607995 	(obj:0)
_var2847_                           0.243720724624739 	(obj:0)
_var2848_                           0.137971882190462 	(obj:0)
_var2849_                          0.0131304640382068 	(obj:0)
_var2851_                           0.172053668405687 	(obj:0)
_var2853_                          0.0602612440254556 	(obj:0)
_var2854_                            0.17405843358464 	(obj:0)
_var2858_                           0.266793469062552 	(obj:0)
_var2860_                           0.211731913980013 	(obj:0)
_var2861_                         0.00204943833436299 	(obj:0)
_var2862_                            0.30082639711588 	(obj:0)
_var2863_                           0.215673316598533 	(obj:0)
_var2864_                           0.108514907279857 	(obj:0)
_var2865_                           0.142771450610382 	(obj:0)
_var2866_                           0.312938764719974 	(obj:0)
_var2867_                          0.0220578773598815 	(obj:0)
_var2870_                          0.0242963134557718 	(obj:0)
_var2871_                          0.0389220638020875 	(obj:0)
_var2872_                          0.0279744227751041 	(obj:0)
_var2873_                          0.0085362180826365 	(obj:0)
_var2874_                          0.0403196165113503 	(obj:0)
_var2875_                           0.133672868242376 	(obj:0)
_var2876_                           0.115585827451105 	(obj:0)
_var2877_                           0.353271252558711 	(obj:0)
_var2879_                           0.119220393828437 	(obj:0)
_var2880_                           0.275991093162874 	(obj:0)
_var2881_                          0.0606154649852298 	(obj:0)
_var2882_                           0.235782161753043 	(obj:0)
_var2883_                           0.188395302548239 	(obj:0)
_var2884_                          0.0210792044521106 	(obj:0)
_var2886_                          0.0683663643681363 	(obj:0)
_var2887_                          0.0418119961624399 	(obj:0)
_var2888_                           0.014642639332278 	(obj:0)
_var2889_                           0.041618701750272 	(obj:0)
_var2891_                           0.145794184649511 	(obj:0)
_var2892_                          0.0324605312650107 	(obj:0)
_var2893_                           0.210931736456829 	(obj:0)
_var2895_                           0.142487461561115 	(obj:0)
_var2896_                         0.00742103043125503 	(obj:0)
_var2897_                          0.0826830426608826 	(obj:0)
_var2898_                           0.243559516786845 	(obj:0)
_var2900_                         0.00376092345153109 	(obj:0)
_var2901_                          0.0772876656134042 	(obj:0)
_var2902_                           0.282917249110934 	(obj:0)
_var2903_                           0.123742311343929 	(obj:0)
_var2905_                          0.0183091769414554 	(obj:0)
_var2906_                          0.0557362325717668 	(obj:0)
_var2907_                          0.0283083705814614 	(obj:0)
_var2908_                          0.0126642410998572 	(obj:0)
_var2909_                          0.0859666852403921 	(obj:0)
_var2910_                          0.0597380406192502 	(obj:0)
_var2912_                          0.0595786049792148 	(obj:0)
_var2913_                           0.102048272352551 	(obj:0)
_var2914_                           0.171178662158685 	(obj:0)
_var2915_                           0.119838036566439 	(obj:0)
_var2919_                           0.233661624059857 	(obj:0)
_var2920_                          0.0305564646778477 	(obj:0)
_var2921_                          0.0564905713524415 	(obj:0)
_var2922_                           0.097450224273066 	(obj:0)
_var2923_                           0.129370804283717 	(obj:0)
_var2929_                           0.143385416580218 	(obj:0)
_var2930_                           0.111891024495918 	(obj:0)
_var2931_                           0.002447071783888 	(obj:0)
_var2932_                          0.0392726631697075 	(obj:0)
_var2933_                           0.151227518530685 	(obj:0)
_var2934_                           0.188109964874185 	(obj:0)
_var2935_                          0.0580944970876793 	(obj:0)
_var2937_                           0.129986796618348 	(obj:0)
_var2939_                          0.0327930026689209 	(obj:0)
_var2941_                          0.0586693316089617 	(obj:0)
_var2944_                          0.0422848986156747 	(obj:0)
_var2946_                           0.179655930202364 	(obj:0)
_var2947_                         0.00392103407991941 	(obj:0)
_var2948_                          0.0236486626848383 	(obj:0)
_var2952_                           0.099209918231061 	(obj:0)
_var2953_                          0.0614600300133341 	(obj:0)
_var2955_                          0.0878063573785949 	(obj:0)
_var2958_                           0.114402843628875 	(obj:0)
_var2959_                          0.0411330669080252 	(obj:0)
_var2965_                           0.155864801088311 	(obj:0)
_var2966_                         0.00903306439653279 	(obj:0)
_var2967_                          0.0444539417508038 	(obj:0)
_var2968_                          0.0145984598188236 	(obj:0)
_var2971_                           0.032881345795918 	(obj:0)
_var2972_                           0.199359247583598 	(obj:0)
_var2975_                          0.0326310338607685 	(obj:0)
_var2980_                          0.0945281079976047 	(obj:0)
_var2981_                           0.205371183071727 	(obj:0)
_var2983_                          0.0062577823621329 	(obj:0)
_var2987_                           0.130377648787691 	(obj:0)
_var2988_                          0.0737364582023365 	(obj:0)
_var2989_                            0.03071431774312 	(obj:0)
_var2990_                          0.0234290057586521 	(obj:0)
_var2991_                          0.0381360981740795 	(obj:0)
_var2992_                          0.0681424083324089 	(obj:0)
_var2994_                          0.0578331717781798 	(obj:0)
_var2996_                           0.153133193553408 	(obj:0)
_var2997_                          0.0297894125588041 	(obj:0)
_var2999_                         0.00623201566957921 	(obj:0)
_var3001_                          0.0358905528180944 	(obj:0)
_var3002_                          0.0819347321988594 	(obj:0)
_var3004_                          0.0851289386664176 	(obj:0)
_var3005_                         0.00536290648305263 	(obj:0)
_var3006_                           0.027240613404504 	(obj:0)
_var3008_                          0.0158821099478679 	(obj:0)
_var3009_                          0.0771594479025108 	(obj:0)
_var3011_                          0.0648174676050073 	(obj:0)
_var3012_                           0.156849317304954 	(obj:0)
_var3016_                         0.00587268451946976 	(obj:0)
_var3020_                          0.0298642833536078 	(obj:0)
_var3023_                          0.0302643353622034 	(obj:0)
_var3024_                          0.0146073786191052 	(obj:0)
_var3028_                           0.106255959474982 	(obj:0)
_var3029_                         0.00650124248737394 	(obj:0)
_var3030_                          0.0176730923068087 	(obj:0)
_var3031_                          0.0449418116694127 	(obj:0)
