results_rootrelaxation/bin018_050_030.srr.log
SCIP version 8.0.3.5 [precision: 8 byte] [memory: block] [mode: optimized] [LP solver: Soplex 6.0.1.3] [GitHash: 438792519e]
Copyright (c) 2002-2023 Zuse Institute Berlin (ZIB)

External libraries: 
  Readline 8.1         GNU library for command line editing (gnu.org/s/readline)
  Soplex 6.0.1.3       Linear Programming Solver developed at Zuse Institute Berlin (soplex.zib.de) [GitHash: 713be0fe]
  CppAD 20180000.0     Algorithmic Differentiation of C++ algorithms developed by B. Bell (github.com/coin-or/CppAD)
  ZLIB 1.2.11          General purpose compression library by J. Gailly and M. Adler (zlib.net)
  bliss 0.77           Computing Graph Automorphism Groups by T. Junttila and P. Kaski (www.tcs.hut.fi/Software/bliss/)

user parameter file <scip.set> not found - using default parameters

srr/relaxation = TRUE

read problem <instances/bin018_050_030.srr>
============

Original problem: 
original problem has 0 variables (0 bin, 0 int, 0 impl, 0 cont) and 170 constraints

presolving:
presolving (1 rounds: 1 fast, 1 medium, 1 exhaustive):
 0 deleted vars, 0 deleted constraints, 0 added constraints, 0 tightened bounds, 0 added holes, 0 changed sides, 0 changed coefficients
 0 implications, 0 cliques
presolved problem has 0 variables (0 bin, 0 int, 0 impl, 0 cont) and 170 constraints
    170 constraints of type <linear>
Presolving Time: 0.00

 time | node  | left  |LP iter|LP it/n|mem/heur|mdpt |vars |cons |rows |cuts |sepa|confs|strbr|  dualbound   | primalbound  |  gap   | compl. 
  0.0s|     1 |     0 |     1 |     - |   922k |   0 |   1 | 170 | 170 |   0 |  0 |   0 |   0 |      --      |      --      |    Inf | unknown
  0.2s|     1 |     0 |  1507 |     - |  7182k |   0 |1604 | 170 | 170 |   0 |  0 |   0 |   0 |      --      |      --      |    Inf | unknown
r 0.8s|     1 |     0 |  6420 |     - |simplero|   0 |2726 | 170 | 170 |   0 |  0 |   0 |   0 |      --      | 3.246011e+01 |    Inf | unknown
r 0.8s|     1 |     0 |  6488 |     - |simplero|   0 |2743 | 170 | 170 |   0 |  0 |   0 |   0 |      --      | 3.113982e+01 |    Inf | unknown
r 0.9s|     1 |     0 |  6618 |     - |simplero|   0 |2760 | 170 | 170 |   0 |  0 |   0 |   0 |      --      | 2.878705e+01 |    Inf | unknown
r 0.9s|     1 |     0 |  6767 |     - |simplero|   0 |2777 | 170 | 170 |   0 |  0 |   0 |   0 |      --      | 2.656732e+01 |    Inf | unknown
r 0.9s|     1 |     0 |  6877 |     - |simplero|   0 |2794 | 170 | 170 |   0 |  0 |   0 |   0 |      --      | 2.437509e+01 |    Inf | unknown
r 0.9s|     1 |     0 |  6914 |     - |simplero|   0 |2794 | 170 | 170 |   0 |  0 |   0 |   0 |      --      | 2.413660e+01 |    Inf | unknown
r 0.9s|     1 |     0 |  6918 |     - |simplero|   0 |2794 | 170 | 170 |   0 |  0 |   0 |   0 |      --      | 2.413003e+01 |    Inf | unknown
r 0.9s|     1 |     0 |  6921 |     - |simplero|   0 |2794 | 170 | 170 |   0 |  0 |   0 |   0 |      --      | 2.412963e+01 |    Inf | unknown
r 0.9s|     1 |     0 |  7059 |     - |simplero|   0 |2811 | 170 | 170 |   0 |  0 |   0 |   0 |      --      | 2.260154e+01 |    Inf | unknown
r 0.9s|     1 |     0 |  7121 |     - |simplero|   0 |2811 | 170 | 170 |   0 |  0 |   0 |   0 |      --      | 2.203068e+01 |    Inf | unknown
r 0.9s|     1 |     0 |  7128 |     - |simplero|   0 |2811 | 170 | 170 |   0 |  0 |   0 |   0 |      --      | 2.201046e+01 |    Inf | unknown
r 1.0s|     1 |     0 |  7237 |     - |simplero|   0 |2828 | 170 | 170 |   0 |  0 |   0 |   0 |      --      | 2.063505e+01 |    Inf | unknown
r 1.0s|     1 |     0 |  7319 |     - |simplero|   0 |2828 | 170 | 170 |   0 |  0 |   0 |   0 |      --      | 2.014205e+01 |    Inf | unknown
 time | node  | left  |LP iter|LP it/n|mem/heur|mdpt |vars |cons |rows |cuts |sepa|confs|strbr|  dualbound   | primalbound  |  gap   | compl. 
r 1.0s|     1 |     0 |  7324 |     - |simplero|   0 |2828 | 170 | 170 |   0 |  0 |   0 |   0 |      --      | 2.013624e+01 |    Inf | unknown
r 1.0s|     1 |     0 |  7487 |     - |simplero|   0 |2845 | 170 | 170 |   0 |  0 |   0 |   0 |      --      | 1.736811e+01 |    Inf | unknown
r 1.0s|     1 |     0 |  7578 |     - |simplero|   0 |2845 | 170 | 170 |   0 |  0 |   0 |   0 |      --      | 1.693014e+01 |    Inf | unknown
r 1.0s|     1 |     0 |  7594 |     - |simplero|   0 |2845 | 170 | 170 |   0 |  0 |   0 |   0 |      --      | 1.691253e+01 |    Inf | unknown
r 1.0s|     1 |     0 |  7598 |     - |simplero|   0 |2845 | 170 | 170 |   0 |  0 |   0 |   0 |      --      | 1.691133e+01 |    Inf | unknown
r 1.0s|     1 |     0 |  7772 |     - |simplero|   0 |2862 | 170 | 170 |   0 |  0 |   0 |   0 |      --      | 1.423858e+01 |    Inf | unknown
r 1.0s|     1 |     0 |  7864 |     - |simplero|   0 |2862 | 170 | 170 |   0 |  0 |   0 |   0 |      --      | 1.377986e+01 |    Inf | unknown
r 1.1s|     1 |     0 |  8031 |     - |simplero|   0 |2879 | 170 | 170 |   0 |  0 |   0 |   0 |      --      | 1.118557e+01 |    Inf | unknown
r 1.1s|     1 |     0 |  8078 |     - |simplero|   0 |2879 | 170 | 170 |   0 |  0 |   0 |   0 |      --      | 1.097321e+01 |    Inf | unknown
r 1.1s|     1 |     0 |  8092 |     - |simplero|   0 |2879 | 170 | 170 |   0 |  0 |   0 |   0 |      --      | 1.096670e+01 |    Inf | unknown
r 1.1s|     1 |     0 |  8229 |     - |simplero|   0 |2896 | 170 | 170 |   0 |  0 |   0 |   0 |      --      | 9.158878e+00 |    Inf | unknown
r 1.1s|     1 |     0 |  8294 |     - |simplero|   0 |2896 | 170 | 170 |   0 |  0 |   0 |   0 |      --      | 8.844347e+00 |    Inf | unknown
r 1.1s|     1 |     0 |  8310 |     - |simplero|   0 |2896 | 170 | 170 |   0 |  0 |   0 |   0 |      --      | 8.827887e+00 |    Inf | unknown
r 1.1s|     1 |     0 |  8473 |     - |simplero|   0 |2913 | 170 | 170 |   0 |  0 |   0 |   0 |      --      | 6.875618e+00 |    Inf | unknown
r 1.1s|     1 |     0 |  8506 |     - |simplero|   0 |2913 | 170 | 170 |   0 |  0 |   0 |   0 |      --      | 6.695737e+00 |    Inf | unknown
 time | node  | left  |LP iter|LP it/n|mem/heur|mdpt |vars |cons |rows |cuts |sepa|confs|strbr|  dualbound   | primalbound  |  gap   | compl. 
r 1.1s|     1 |     0 |  8516 |     - |simplero|   0 |2913 | 170 | 170 |   0 |  0 |   0 |   0 |      --      | 6.687750e+00 |    Inf | unknown
r 1.1s|     1 |     0 |  8675 |     - |simplero|   0 |2930 | 170 | 170 |   0 |  0 |   0 |   0 |      --      | 5.350541e+00 |    Inf | unknown
r 1.2s|     1 |     0 |  8707 |     - |simplero|   0 |2930 | 170 | 170 |   0 |  0 |   0 |   0 |      --      | 5.253048e+00 |    Inf | unknown
  1.2s|     1 |     0 |  8709 |     - |    13M |   0 |2930 | 170 | 170 |   0 |  0 |   0 |   0 |      --      | 5.253048e+00 |    Inf | unknown
r 1.2s|     1 |     0 |  8709 |     - |simplero|   0 |2930 | 170 | 170 |   0 |  0 |   0 |   0 |      --      | 5.252163e+00 |    Inf | unknown
r 1.2s|     1 |     0 |  8861 |     - |simplero|   0 |2947 | 170 | 170 |   0 |  0 |   0 |   0 |      --      | 3.771877e+00 |    Inf | unknown
r 1.2s|     1 |     0 |  8866 |     - |simplero|   0 |2947 | 170 | 170 |   0 |  0 |   0 |   0 |      --      | 3.769996e+00 |    Inf | unknown
r 1.2s|     1 |     0 |  8973 |     - |simplero|   0 |2964 | 170 | 170 |   0 |  0 |   0 |   0 |      --      | 2.599115e+00 |    Inf | unknown
r 1.2s|     1 |     0 |  9013 |     - |simplero|   0 |2964 | 170 | 170 |   0 |  0 |   0 |   0 |      --      | 2.460353e+00 |    Inf | unknown
r 1.2s|     1 |     0 |  9037 |     - |simplero|   0 |2964 | 170 | 170 |   0 |  0 |   0 |   0 |      --      | 2.415456e+00 |    Inf | unknown
r 1.2s|     1 |     0 |  9039 |     - |simplero|   0 |2964 | 170 | 170 |   0 |  0 |   0 |   0 |      --      | 2.415183e+00 |    Inf | unknown
r 1.2s|     1 |     0 |  9128 |     - |simplero|   0 |2981 | 170 | 170 |   0 |  0 |   0 |   0 |      --      | 1.797126e+00 |    Inf | unknown
r 1.2s|     1 |     0 |  9145 |     - |simplero|   0 |2981 | 170 | 170 |   0 |  0 |   0 |   0 |      --      | 1.766606e+00 |    Inf | unknown
r 1.2s|     1 |     0 |  9149 |     - |simplero|   0 |2981 | 170 | 170 |   0 |  0 |   0 |   0 |      --      | 1.765979e+00 |    Inf | unknown
r 1.2s|     1 |     0 |  9150 |     - |simplero|   0 |2981 | 170 | 170 |   0 |  0 |   0 |   0 |      --      | 1.765967e+00 |    Inf | unknown
 time | node  | left  |LP iter|LP it/n|mem/heur|mdpt |vars |cons |rows |cuts |sepa|confs|strbr|  dualbound   | primalbound  |  gap   | compl. 
r 1.2s|     1 |     0 |  9215 |     - |simplero|   0 |2998 | 170 | 170 |   0 |  0 |   0 |   0 |      --      | 1.235338e+00 |    Inf | unknown
r 1.3s|     1 |     0 |  9291 |     - |simplero|   0 |2998 | 170 | 170 |   0 |  0 |   0 |   0 |      --      | 9.110617e-01 |    Inf | unknown
r 1.3s|     1 |     0 |  9310 |     - |simplero|   0 |2998 | 170 | 170 |   0 |  0 |   0 |   0 |      --      | 8.956710e-01 |    Inf | unknown
r 1.3s|     1 |     0 |  9410 |     - |simplero|   0 |3015 | 170 | 170 |   0 |  0 |   0 |   0 |      --      | 3.183754e-01 |    Inf | unknown
r 1.3s|     1 |     0 |  9446 |     - |simplero|   0 |3015 | 170 | 170 |   0 |  0 |   0 |   0 |      --      | 2.700331e-01 |    Inf | unknown
r 1.3s|     1 |     0 |  9448 |     - |simplero|   0 |3015 | 170 | 170 |   0 |  0 |   0 |   0 |      --      | 2.699915e-01 |    Inf | unknown
r 1.3s|     1 |     0 |  9534 |     - |simplero|   0 |3032 | 170 | 170 |   0 |  0 |   0 |   0 |      --      | 5.230141e-03 |    Inf | unknown
r 1.3s|     1 |     0 |  9537 |     - |simplero|   0 |3032 | 170 | 170 |   0 |  0 |   0 |   0 |      --      | 0.000000e+00 |    Inf | unknown
  1.3s|     1 |     0 |  9537 |     - |    15M |   0 |3032 | 170 | 170 |   0 |  0 |   0 |   0 | 0.000000e+00 | 0.000000e+00 |   0.00%| unknown
  1.3s|     1 |     0 |  9537 |     - |    15M |   0 |3032 | 170 | 170 |   0 |  0 |   0 |   0 | 0.000000e+00 | 0.000000e+00 |   0.00%| unknown

SCIP Status        : problem is solved [optimal solution found]
Solving Time (sec) : 1.31
Solving Nodes      : 1
Primal Bound       : +0.00000000000000e+00 (50 solutions)
Dual Bound         : +0.00000000000000e+00
Gap                : 0.00 %

written transformed problem to file <results_rootrelaxation/bin018_050_030.srr.lp>
written transformed problem to file <results_rootrelaxation/bin018_050_030.srr.cip>

written solution information to file <results_rootrelaxation/bin018_050_030.srr.sol>



